NAME : random67.662.tour
COMMENT : Length = 662
COMMENT : Found by LKH [Keld Helsgaun] Tue May  7 16:07:23 2024
TYPE : TOUR
DIMENSION : 67
TOUR_SECTION
1
18
33
67
50
57
65
6
15
44
21
17
48
52
30
2
53
22
29
47
51
42
55
66
20
5
62
64
40
59
34
58
63
45
9
46
31
39
38
3
37
43
8
13
23
7
16
10
27
12
60
14
32
41
36
19
54
61
35
25
56
11
49
24
4
26
28
-1
EOF
